Route #1: 6 33 63 23 56 24 49 16
Route #2: 62 22 64 42 41 43 1 73 51
Route #3: 30 74 21 61 28 2 68
Route #4: 27 37 20 70 60 71 69 36 47 48
Route #5: 52 19 54 13 57 15 5 29 45
Route #6: 75 4 34 46 67
Route #7: 7 11 59 14 35 8
Route #8: 53 66 65 38 10 58
Route #9: 26 12 39 9 40 17
Route #10: 72 31 25 55 18 50 32 44 3
Cost 835.262
